sat
(:eliminated-vars    12
 :max-memory         18.15
 :memory             18.05
 :nlsat-conflicts    22
 :nlsat-decisions    1
 :nlsat-propagations 226
 :nlsat-stages       111
 :num-allocs         36763
 :rlimit-count       11103
 :time               0.01
 :total-time         0.02)
